sat-competition-2018/orders/benchmarks-pi/cms-scheel-sha3-order-w1-rp-o1.cnf
c This is a CNF SAT formula in the DIMACS CNF format,
c produced with the bc2cnf translator by Tommi Junttila;
c see http://users.ics.aalto.fi/tjunttil/circuits/index.html
c cidentity <-> 1
c h1out24 <-> 28
c h1r0p24 <-> 28
c h1in21 <-> 28
c h1out23 <-> 29
c h1r0p23 <-> 29
c h1in15 <-> 29
c h1out22 <-> 30
c h1r0p22 <-> 30
c h1in14 <-> 30
c h1out21 <-> 31
c h1r0p21 <-> 31
c h1in8 <-> 31
c h1out20 <-> 32
c h1r0p20 <-> 32
c h1in2 <-> 32
c h1out19 <-> 33
c h1r0p19 <-> 33
c h1in23 <-> 33
c h1out18 <-> 34
c h1r0p18 <-> 34
c h1in17 <-> 34
c h1out17 <-> 35
c h1r0p17 <-> 35
c h1in11 <-> 35
c h1out16 <-> 36
c h1r0p16 <-> 36
c h1in5 <-> 36
c h1out15 <-> 37
c h1r0p15 <-> 37
c h1in4 <-> 37
c h1out14 <-> 38
c h1r0p14 <-> 38
c h1in20 <-> 38
c h1out13 <-> 39
c h1r0p13 <-> 39
c h1in19 <-> 39
c h1out12 <-> 40
c h1r0p12 <-> 40
c h1in13 <-> 40
c h1out11 <-> 41
c h1r0p11 <-> 41
c h1in7 <-> 41
c h1out10 <-> 42
c h1r0p10 <-> 42
c h1in1 <-> 42
c h1out9 <-> 43
c h1r0p9 <-> 43
c h1in22 <-> 43
c h1out8 <-> 44
c h1r0p8 <-> 44
c h1in16 <-> 44
c h1out7 <-> 45
c h1r0p7 <-> 45
c h1in10 <-> 45
c h1out6 <-> 46
c h1r0p6 <-> 46
c h1in9 <-> 46
c h1out5 <-> 47
c h1r0p5 <-> 47
c h1in3 <-> 47
c h1out4 <-> 48
c h1r0p4 <-> 48
c h1in24 <-> 48
c h1out3 <-> 49
c h1r0p3 <-> 49
c h1in18 <-> 49
c h1out2 <-> 50
c h1r0p2 <-> 50
c h1in12 <-> 50
c h1out1 <-> 51
c h1r0p1 <-> 51
c h1in6 <-> 51
c h1out0 <-> 52
c h1r0p0 <-> 52
c h1in0 <-> 52
p cnf 52 128
1 0
-2 3 0
-2 4 0
-2 5 0
-2 6 0
-2 7 0
-2 8 0
-2 9 0
-2 10 0
-2 11 0
-2 12 0
-2 13 0
-2 14 0
-2 15 0
-2 16 0
-2 17 0
-2 18 0
-2 19 0
-2 20 0
-2 21 0
-2 22 0
-2 23 0
-2 24 0
-2 25 0
-2 26 0
-2 27 0
2 -27 -26 -25 -24 -23 -22 -21 -20 -19 -18 -17 -16 -15 -14 -13 -12 -11 -10 -9 -8 -7 -6 -5 -4 -3 0
-2 0
3 48 28 0
3 -48 -28 0
-3 48 -28 0
-3 -48 28 0
4 33 29 0
4 -33 -29 0
-4 33 -29 0
-4 -33 29 0
5 43 30 0
5 -43 -30 0
-5 43 -30 0
-5 -43 30 0
6 31 28 0
6 -31 -28 0
-6 31 -28 0
-6 -31 28 0
7 38 32 0
7 -38 -32 0
-7 38 -32 0
-7 -38 32 0
8 39 33 0
8 -39 -33 0
-8 39 -33 0
-8 -39 33 0
9 49 34 0
9 -49 -34 0
-9 49 -34 0
-9 -49 34 0
10 35 34 0
10 -35 -34 0
-10 35 -34 0
-10 -35 34 0
11 44 36 0
11 -44 -36 0
-11 44 -36 0
-11 -44 36 0
12 37 29 0
12 -37 -29 0
-12 37 -29 0
-12 -37 29 0
13 38 30 0
13 -38 -30 0
-13 38 -30 0
-13 -38 30 0
14 40 39 0
14 -40 -39 0
-14 40 -39 0
-14 -40 39 0
15 50 40 0
15 -50 -40 0
-15 50 -40 0
-15 -50 40 0
16 41 35 0
16 -41 -35 0
-16 41 -35 0
-16 -41 35 0
17 45 42 0
17 -45 -42 0
-17 45 -42 0
-17 -45 42 0
18 46 43 0
18 -46 -43 0
-18 46 -43 0
-18 -46 43 0
19 44 31 0
19 -44 -31 0
-19 44 -31 0
-19 -44 31 0
20 45 41 0
20 -45 -41 0
-20 45 -41 0
-20 -45 41 0
21 51 46 0
21 -51 -46 0
-21 51 -46 0
-21 -51 46 0
22 47 36 0
22 -47 -36 0
-22 47 -36 0
-22 -47 36 0
23 48 37 0
23 -48 -37 0
-23 48 -37 0
-23 -48 37 0
24 49 47 0
24 -49 -47 0
-24 49 -47 0
-24 -49 47 0
25 50 32 0
25 -50 -32 0
-25 50 -32 0
-25 -50 32 0
26 51 42 0
26 -51 -42 0
-26 51 -42 0
-26 -51 42 0
27 52 52 0
27 -52 -52 0
-27 52 -52 0
-27 -52 52 0
